# Solution for model Foam Planning
# Objective value = 0
x[Tool1,C1,D1S1P1] 0
x[Tool1,C1,D1S1P2] 0
x[Tool1,C1,D1S1P3] 0
x[Tool1,C1,D1S2P1] 0
x[Tool1,C1,D1S2P2] 0
x[Tool1,C1,D1S2P3] 0
x[Tool1,C1,D1S3P1] 0
x[Tool1,C1,D1S3P2] 0
x[Tool1,C1,D1S3P3] 0
x[Tool1,C1,D2S1P1] 0
x[Tool1,C1,D2S1P2] 1
x[Tool1,C1,D2S1P3] 0
x[Tool1,C1,D2S2P1] 1
x[Tool1,C1,D2S2P2] 0
x[Tool1,C1,D2S2P3] 0
x[Tool1,C1,D2S3P1] 1
x[Tool1,C1,D2S3P2] 0
x[Tool1,C1,D2S3P3] 0
x[Tool1,C1,D3S1P1] 0
x[Tool1,C1,D3S1P2] 0
x[Tool1,C1,D3S1P3] 0
x[Tool1,C1,D3S2P1] 0
x[Tool1,C1,D3S2P2] 0
x[Tool1,C1,D3S2P3] 1
x[Tool1,C1,D3S3P1] 0
x[Tool1,C1,D3S3P2] 0
x[Tool1,C1,D3S3P3] 0
x[Tool1,C1,D4S1P1] 0
x[Tool1,C1,D4S1P2] 0
x[Tool1,C1,D4S1P3] 0
x[Tool1,C1,D4S2P1] 0
x[Tool1,C1,D4S2P2] 0
x[Tool1,C1,D4S2P3] 0
x[Tool1,C1,D4S3P1] 0
x[Tool1,C1,D4S3P2] 1
x[Tool1,C1,D4S3P3] 0
x[Tool1,C1,D5S1P1] 0
x[Tool1,C1,D5S1P2] 0
x[Tool1,C1,D5S1P3] 0
x[Tool1,C1,D5S2P1] 0
x[Tool1,C1,D5S2P2] 0
x[Tool1,C1,D5S2P3] 0
x[Tool1,C1,D5S3P1] 0
x[Tool1,C1,D5S3P2] 0
x[Tool1,C1,D5S3P3] 0
x[Tool1,C1,D6S1P1] 0
x[Tool1,C1,D6S1P2] 0
x[Tool1,C1,D6S1P3] 0
x[Tool1,C1,D6S2P1] 0
x[Tool1,C1,D6S2P2] 0
x[Tool1,C1,D6S2P3] 0
x[Tool1,C1,D6S3P1] 1
x[Tool1,C1,D6S3P2] 0
x[Tool1,C1,D6S3P3] 0
x[Tool1,C1,D7S1P1] 0
x[Tool1,C1,D7S1P2] 0
x[Tool1,C1,D7S1P3] 0
x[Tool1,C1,D7S2P1] 0
x[Tool1,C1,D7S2P2] 0
x[Tool1,C1,D7S2P3] 0
x[Tool1,C1,D7S3P1] 0
x[Tool1,C1,D7S3P2] 0
x[Tool1,C1,D7S3P3] 0
x[Tool1,C2,D1S1P1] 0
x[Tool1,C2,D1S1P2] 0
x[Tool1,C2,D1S1P3] 1
x[Tool1,C2,D1S2P1] 0
x[Tool1,C2,D1S2P2] 0
x[Tool1,C2,D1S2P3] 1
x[Tool1,C2,D1S3P1] 1
x[Tool1,C2,D1S3P2] 1
x[Tool1,C2,D1S3P3] 0
x[Tool1,C2,D2S1P1] 0
x[Tool1,C2,D2S1P2] 0
x[Tool1,C2,D2S1P3] 0
x[Tool1,C2,D2S2P1] 1
x[Tool1,C2,D2S2P2] 0
x[Tool1,C2,D2S2P3] 0
x[Tool1,C2,D2S3P1] 0
x[Tool1,C2,D2S3P2] 1
x[Tool1,C2,D2S3P3] 0
x[Tool1,C2,D3S1P1] 1
x[Tool1,C2,D3S1P2] 0
x[Tool1,C2,D3S1P3] 0
x[Tool1,C2,D3S2P1] 0
x[Tool1,C2,D3S2P2] 0
x[Tool1,C2,D3S2P3] 0
x[Tool1,C2,D3S3P1] 0
x[Tool1,C2,D3S3P2] 0
x[Tool1,C2,D3S3P3] 1
x[Tool1,C2,D4S1P1] 0
x[Tool1,C2,D4S1P2] 0
x[Tool1,C2,D4S1P3] 0
x[Tool1,C2,D4S2P1] 0
x[Tool1,C2,D4S2P2] 0
x[Tool1,C2,D4S2P3] 0
x[Tool1,C2,D4S3P1] 0
x[Tool1,C2,D4S3P2] 0
x[Tool1,C2,D4S3P3] 1
x[Tool1,C2,D5S1P1] 0
x[Tool1,C2,D5S1P2] 1
x[Tool1,C2,D5S1P3] 0
x[Tool1,C2,D5S2P1] 0
x[Tool1,C2,D5S2P2] 0
x[Tool1,C2,D5S2P3] 1
x[Tool1,C2,D5S3P1] 1
x[Tool1,C2,D5S3P2] 1
x[Tool1,C2,D5S3P3] 0
x[Tool1,C2,D6S1P1] 0
x[Tool1,C2,D6S1P2] 0
x[Tool1,C2,D6S1P3] 0
x[Tool1,C2,D6S2P1] 0
x[Tool1,C2,D6S2P2] 0
x[Tool1,C2,D6S2P3] 0
x[Tool1,C2,D6S3P1] 0
x[Tool1,C2,D6S3P2] 0
x[Tool1,C2,D6S3P3] 1
x[Tool1,C2,D7S1P1] 1
x[Tool1,C2,D7S1P2] 0
x[Tool1,C2,D7S1P3] 1
x[Tool1,C2,D7S2P1] 0
x[Tool1,C2,D7S2P2] 0
x[Tool1,C2,D7S2P3] 1
x[Tool1,C2,D7S3P1] 0
x[Tool1,C2,D7S3P2] 0
x[Tool1,C2,D7S3P3] 0
x[Tool1,C3,D1S1P1] 0
x[Tool1,C3,D1S1P2] 0
x[Tool1,C3,D1S1P3] 0
x[Tool1,C3,D1S2P1] 0
x[Tool1,C3,D1S2P2] 0
x[Tool1,C3,D1S2P3] 0
x[Tool1,C3,D1S3P1] 0
x[Tool1,C3,D1S3P2] 0
x[Tool1,C3,D1S3P3] 0
x[Tool1,C3,D2S1P1] 0
x[Tool1,C3,D2S1P2] 0
x[Tool1,C3,D2S1P3] 0
x[Tool1,C3,D2S2P1] 0
x[Tool1,C3,D2S2P2] 0
x[Tool1,C3,D2S2P3] 0
x[Tool1,C3,D2S3P1] 0
x[Tool1,C3,D2S3P2] 0
x[Tool1,C3,D2S3P3] 0
x[Tool1,C3,D3S1P1] 1
x[Tool1,C3,D3S1P2] 0
x[Tool1,C3,D3S1P3] 0
x[Tool1,C3,D3S2P1] 0
x[Tool1,C3,D3S2P2] 0
x[Tool1,C3,D3S2P3] 1
x[Tool1,C3,D3S3P1] 0
x[Tool1,C3,D3S3P2] 0
x[Tool1,C3,D3S3P3] 0
x[Tool1,C3,D4S1P1] 0
x[Tool1,C3,D4S1P2] 1
x[Tool1,C3,D4S1P3] 0
x[Tool1,C3,D4S2P1] 0
x[Tool1,C3,D4S2P2] 0
x[Tool1,C3,D4S2P3] 0
x[Tool1,C3,D4S3P1] 0
x[Tool1,C3,D4S3P2] 0
x[Tool1,C3,D4S3P3] 0
x[Tool1,C3,D5S1P1] 0
x[Tool1,C3,D5S1P2] 0
x[Tool1,C3,D5S1P3] 0
x[Tool1,C3,D5S2P1] 0
x[Tool1,C3,D5S2P2] 0
x[Tool1,C3,D5S2P3] 1
x[Tool1,C3,D5S3P1] 0
x[Tool1,C3,D5S3P2] 0
x[Tool1,C3,D5S3P3] 0
x[Tool1,C3,D6S1P1] 0
x[Tool1,C3,D6S1P2] 0
x[Tool1,C3,D6S1P3] 0
x[Tool1,C3,D6S2P1] 1
x[Tool1,C3,D6S2P2] 0
x[Tool1,C3,D6S2P3] 0
x[Tool1,C3,D6S3P1] 0
x[Tool1,C3,D6S3P2] 0
x[Tool1,C3,D6S3P3] 0
x[Tool1,C3,D7S1P1] 0
x[Tool1,C3,D7S1P2] 0
x[Tool1,C3,D7S1P3] 0
x[Tool1,C3,D7S2P1] 0
x[Tool1,C3,D7S2P2] 0
x[Tool1,C3,D7S2P3] 1
x[Tool1,C3,D7S3P1] 0
x[Tool1,C3,D7S3P2] 0
x[Tool1,C3,D7S3P3] 1
x[Tool1,C4,D1S1P1] 0
x[Tool1,C4,D1S1P2] 0
x[Tool1,C4,D1S1P3] 0
x[Tool1,C4,D1S2P1] 1
x[Tool1,C4,D1S2P2] 0
x[Tool1,C4,D1S2P3] 0
x[Tool1,C4,D1S3P1] 0
x[Tool1,C4,D1S3P2] 0
x[Tool1,C4,D1S3P3] 0
x[Tool1,C4,D2S1P1] 0
x[Tool1,C4,D2S1P2] 0
x[Tool1,C4,D2S1P3] 0
x[Tool1,C4,D2S2P1] 0
x[Tool1,C4,D2S2P2] 0
x[Tool1,C4,D2S2P3] 0
x[Tool1,C4,D2S3P1] 0
x[Tool1,C4,D2S3P2] 0
x[Tool1,C4,D2S3P3] 0
x[Tool1,C4,D3S1P1] 0
x[Tool1,C4,D3S1P2] 1
x[Tool1,C4,D3S1P3] 0
x[Tool1,C4,D3S2P1] 1
x[Tool1,C4,D3S2P2] 0
x[Tool1,C4,D3S2P3] 0
x[Tool1,C4,D3S3P1] 0
x[Tool1,C4,D3S3P2] 0
x[Tool1,C4,D3S3P3] 0
x[Tool1,C4,D4S1P1] 0
x[Tool1,C4,D4S1P2] 1
x[Tool1,C4,D4S1P3] 1
x[Tool1,C4,D4S2P1] 1
x[Tool1,C4,D4S2P2] 0
x[Tool1,C4,D4S2P3] 0
x[Tool1,C4,D4S3P1] 1
x[Tool1,C4,D4S3P2] 0
x[Tool1,C4,D4S3P3] 0
x[Tool1,C4,D5S1P1] 1
x[Tool1,C4,D5S1P2] 0
x[Tool1,C4,D5S1P3] 0
x[Tool1,C4,D5S2P1] 0
x[Tool1,C4,D5S2P2] 0
x[Tool1,C4,D5S2P3] 0
x[Tool1,C4,D5S3P1] 0
x[Tool1,C4,D5S3P2] 0
x[Tool1,C4,D5S3P3] 1
x[Tool1,C4,D6S1P1] 0
x[Tool1,C4,D6S1P2] 1
x[Tool1,C4,D6S1P3] 0
x[Tool1,C4,D6S2P1] 0
x[Tool1,C4,D6S2P2] 0
x[Tool1,C4,D6S2P3] 0
x[Tool1,C4,D6S3P1] 0
x[Tool1,C4,D6S3P2] 1
x[Tool1,C4,D6S3P3] 0
x[Tool1,C4,D7S1P1] 0
x[Tool1,C4,D7S1P2] 1
x[Tool1,C4,D7S1P3] 0
x[Tool1,C4,D7S2P1] 0
x[Tool1,C4,D7S2P2] 0
x[Tool1,C4,D7S2P3] 0
x[Tool1,C4,D7S3P1] 1
x[Tool1,C4,D7S3P2] 0
x[Tool1,C4,D7S3P3] 0
x[Tool1,C5,D1S1P1] 0
x[Tool1,C5,D1S1P2] 0
x[Tool1,C5,D1S1P3] 0
x[Tool1,C5,D1S2P1] 0
x[Tool1,C5,D1S2P2] 0
x[Tool1,C5,D1S2P3] 0
x[Tool1,C5,D1S3P1] 0
x[Tool1,C5,D1S3P2] 0
x[Tool1,C5,D1S3P3] 0
x[Tool1,C5,D2S1P1] 0
x[Tool1,C5,D2S1P2] 0
x[Tool1,C5,D2S1P3] 0
x[Tool1,C5,D2S2P1] 1
x[Tool1,C5,D2S2P2] 0
x[Tool1,C5,D2S2P3] 0
x[Tool1,C5,D2S3P1] 0
x[Tool1,C5,D2S3P2] 0
x[Tool1,C5,D2S3P3] 1
x[Tool1,C5,D3S1P1] 1
x[Tool1,C5,D3S1P2] 0
x[Tool1,C5,D3S1P3] 0
x[Tool1,C5,D3S2P1] 0
x[Tool1,C5,D3S2P2] 0
x[Tool1,C5,D3S2P3] 1
x[Tool1,C5,D3S3P1] 0
x[Tool1,C5,D3S3P2] 0
x[Tool1,C5,D3S3P3] 0
x[Tool1,C5,D4S1P1] 0
x[Tool1,C5,D4S1P2] 0
x[Tool1,C5,D4S1P3] 0
x[Tool1,C5,D4S2P1] 0
x[Tool1,C5,D4S2P2] 0
x[Tool1,C5,D4S2P3] 0
x[Tool1,C5,D4S3P1] 0
x[Tool1,C5,D4S3P2] 0
x[Tool1,C5,D4S3P3] 0
x[Tool1,C5,D5S1P1] 0
x[Tool1,C5,D5S1P2] 0
x[Tool1,C5,D5S1P3] 0
x[Tool1,C5,D5S2P1] 1
x[Tool1,C5,D5S2P2] 0
x[Tool1,C5,D5S2P3] 0
x[Tool1,C5,D5S3P1] 0
x[Tool1,C5,D5S3P2] 0
x[Tool1,C5,D5S3P3] 0
x[Tool1,C5,D6S1P1] 0
x[Tool1,C5,D6S1P2] 0
x[Tool1,C5,D6S1P3] 0
x[Tool1,C5,D6S2P1] 0
x[Tool1,C5,D6S2P2] 0
x[Tool1,C5,D6S2P3] 0
x[Tool1,C5,D6S3P1] 0
x[Tool1,C5,D6S3P2] 0
x[Tool1,C5,D6S3P3] 0
x[Tool1,C5,D7S1P1] 1
x[Tool1,C5,D7S1P2] 0
x[Tool1,C5,D7S1P3] 0
x[Tool1,C5,D7S2P1] 0
x[Tool1,C5,D7S2P2] 0
x[Tool1,C5,D7S2P3] 1
x[Tool1,C5,D7S3P1] 0
x[Tool1,C5,D7S3P2] 0
x[Tool1,C5,D7S3P3] 0
x[Tool2,C1,D1S1P1] 0
x[Tool2,C1,D1S1P2] 0
x[Tool2,C1,D1S1P3] 0
x[Tool2,C1,D1S2P1] 0
x[Tool2,C1,D1S2P2] 0
x[Tool2,C1,D1S2P3] 0
x[Tool2,C1,D1S3P1] 0
x[Tool2,C1,D1S3P2] 1
x[Tool2,C1,D1S3P3] 0
x[Tool2,C1,D2S1P1] 0
x[Tool2,C1,D2S1P2] 0
x[Tool2,C1,D2S1P3] 0
x[Tool2,C1,D2S2P1] 0
x[Tool2,C1,D2S2P2] 1
x[Tool2,C1,D2S2P3] 0
x[Tool2,C1,D2S3P1] 0
x[Tool2,C1,D2S3P2] 0
x[Tool2,C1,D2S3P3] 0
x[Tool2,C1,D3S1P1] 0
x[Tool2,C1,D3S1P2] 0
x[Tool2,C1,D3S1P3] 0
x[Tool2,C1,D3S2P1] 0
x[Tool2,C1,D3S2P2] 0
x[Tool2,C1,D3S2P3] 0
x[Tool2,C1,D3S3P1] 0
x[Tool2,C1,D3S3P2] 0
x[Tool2,C1,D3S3P3] 0
x[Tool2,C1,D4S1P1] 0
x[Tool2,C1,D4S1P2] 0
x[Tool2,C1,D4S1P3] 1
x[Tool2,C1,D4S2P1] 1
x[Tool2,C1,D4S2P2] 1
x[Tool2,C1,D4S2P3] 0
x[Tool2,C1,D4S3P1] 1
x[Tool2,C1,D4S3P2] 0
x[Tool2,C1,D4S3P3] 0
x[Tool2,C1,D5S1P1] 0
x[Tool2,C1,D5S1P2] 0
x[Tool2,C1,D5S1P3] 0
x[Tool2,C1,D5S2P1] 0
x[Tool2,C1,D5S2P2] 0
x[Tool2,C1,D5S2P3] 1
x[Tool2,C1,D5S3P1] 0
x[Tool2,C1,D5S3P2] 0
x[Tool2,C1,D5S3P3] 1
x[Tool2,C1,D6S1P1] 1
x[Tool2,C1,D6S1P2] 0
x[Tool2,C1,D6S1P3] 1
x[Tool2,C1,D6S2P1] 0
x[Tool2,C1,D6S2P2] 0
x[Tool2,C1,D6S2P3] 0
x[Tool2,C1,D6S3P1] 0
x[Tool2,C1,D6S3P2] 0
x[Tool2,C1,D6S3P3] 0
x[Tool2,C1,D7S1P1] 0
x[Tool2,C1,D7S1P2] 0
x[Tool2,C1,D7S1P3] 1
x[Tool2,C1,D7S2P1] 0
x[Tool2,C1,D7S2P2] 1
x[Tool2,C1,D7S2P3] 0
x[Tool2,C1,D7S3P1] 0
x[Tool2,C1,D7S3P2] 0
x[Tool2,C1,D7S3P3] 0
x[Tool2,C2,D1S1P1] 0
x[Tool2,C2,D1S1P2] 0
x[Tool2,C2,D1S1P3] 0
x[Tool2,C2,D1S2P1] 0
x[Tool2,C2,D1S2P2] 0
x[Tool2,C2,D1S2P3] 0
x[Tool2,C2,D1S3P1] 0
x[Tool2,C2,D1S3P2] 0
x[Tool2,C2,D1S3P3] 1
x[Tool2,C2,D2S1P1] 0
x[Tool2,C2,D2S1P2] 0
x[Tool2,C2,D2S1P3] 0
x[Tool2,C2,D2S2P1] 0
x[Tool2,C2,D2S2P2] 0
x[Tool2,C2,D2S2P3] 0
x[Tool2,C2,D2S3P1] 1
x[Tool2,C2,D2S3P2] 0
x[Tool2,C2,D2S3P3] 0
x[Tool2,C2,D3S1P1] 0
x[Tool2,C2,D3S1P2] 0
x[Tool2,C2,D3S1P3] 0
x[Tool2,C2,D3S2P1] 0
x[Tool2,C2,D3S2P2] 0
x[Tool2,C2,D3S2P3] 0
x[Tool2,C2,D3S3P1] 0
x[Tool2,C2,D3S3P2] 0
x[Tool2,C2,D3S3P3] 0
x[Tool2,C2,D4S1P1] 0
x[Tool2,C2,D4S1P2] 1
x[Tool2,C2,D4S1P3] 0
x[Tool2,C2,D4S2P1] 0
x[Tool2,C2,D4S2P2] 0
x[Tool2,C2,D4S2P3] 0
x[Tool2,C2,D4S3P1] 1
x[Tool2,C2,D4S3P2] 0
x[Tool2,C2,D4S3P3] 0
x[Tool2,C2,D5S1P1] 0
x[Tool2,C2,D5S1P2] 0
x[Tool2,C2,D5S1P3] 0
x[Tool2,C2,D5S2P1] 0
x[Tool2,C2,D5S2P2] 0
x[Tool2,C2,D5S2P3] 0
x[Tool2,C2,D5S3P1] 0
x[Tool2,C2,D5S3P2] 0
x[Tool2,C2,D5S3P3] 0
x[Tool2,C2,D6S1P1] 0
x[Tool2,C2,D6S1P2] 0
x[Tool2,C2,D6S1P3] 0
x[Tool2,C2,D6S2P1] 0
x[Tool2,C2,D6S2P2] 0
x[Tool2,C2,D6S2P3] 0
x[Tool2,C2,D6S3P1] 0
x[Tool2,C2,D6S3P2] 0
x[Tool2,C2,D6S3P3] 0
x[Tool2,C2,D7S1P1] 0
x[Tool2,C2,D7S1P2] 0
x[Tool2,C2,D7S1P3] 0
x[Tool2,C2,D7S2P1] 0
x[Tool2,C2,D7S2P2] 1
x[Tool2,C2,D7S2P3] 0
x[Tool2,C2,D7S3P1] 0
x[Tool2,C2,D7S3P2] 0
x[Tool2,C2,D7S3P3] 0
x[Tool2,C3,D1S1P1] 0
x[Tool2,C3,D1S1P2] 0
x[Tool2,C3,D1S1P3] 0
x[Tool2,C3,D1S2P1] 1
x[Tool2,C3,D1S2P2] 0
x[Tool2,C3,D1S2P3] 0
x[Tool2,C3,D1S3P1] 1
x[Tool2,C3,D1S3P2] 0
x[Tool2,C3,D1S3P3] 1
x[Tool2,C3,D2S1P1] 0
x[Tool2,C3,D2S1P2] 0
x[Tool2,C3,D2S1P3] 0
x[Tool2,C3,D2S2P1] 0
x[Tool2,C3,D2S2P2] 0
x[Tool2,C3,D2S2P3] 1
x[Tool2,C3,D2S3P1] 0
x[Tool2,C3,D2S3P2] 0
x[Tool2,C3,D2S3P3] 1
x[Tool2,C3,D3S1P1] 0
x[Tool2,C3,D3S1P2] 0
x[Tool2,C3,D3S1P3] 0
x[Tool2,C3,D3S2P1] 0
x[Tool2,C3,D3S2P2] 1
x[Tool2,C3,D3S2P3] 0
x[Tool2,C3,D3S3P1] 0
x[Tool2,C3,D3S3P2] 0
x[Tool2,C3,D3S3P3] 0
x[Tool2,C3,D4S1P1] 0
x[Tool2,C3,D4S1P2] 0
x[Tool2,C3,D4S1P3] 0
x[Tool2,C3,D4S2P1] 0
x[Tool2,C3,D4S2P2] 0
x[Tool2,C3,D4S2P3] 0
x[Tool2,C3,D4S3P1] 0
x[Tool2,C3,D4S3P2] 1
x[Tool2,C3,D4S3P3] 0
x[Tool2,C3,D5S1P1] 0
x[Tool2,C3,D5S1P2] 1
x[Tool2,C3,D5S1P3] 0
x[Tool2,C3,D5S2P1] 0
x[Tool2,C3,D5S2P2] 0
x[Tool2,C3,D5S2P3] 0
x[Tool2,C3,D5S3P1] 1
x[Tool2,C3,D5S3P2] 1
x[Tool2,C3,D5S3P3] 1
x[Tool2,C3,D6S1P1] 0
x[Tool2,C3,D6S1P2] 0
x[Tool2,C3,D6S1P3] 0
x[Tool2,C3,D6S2P1] 0
x[Tool2,C3,D6S2P2] 0
x[Tool2,C3,D6S2P3] 0
x[Tool2,C3,D6S3P1] 0
x[Tool2,C3,D6S3P2] 0
x[Tool2,C3,D6S3P3] 0
x[Tool2,C3,D7S1P1] 0
x[Tool2,C3,D7S1P2] 0
x[Tool2,C3,D7S1P3] 0
x[Tool2,C3,D7S2P1] 0
x[Tool2,C3,D7S2P2] 0
x[Tool2,C3,D7S2P3] 0
x[Tool2,C3,D7S3P1] 0
x[Tool2,C3,D7S3P2] 0
x[Tool2,C3,D7S3P3] 0
x[Tool2,C4,D1S1P1] 0
x[Tool2,C4,D1S1P2] 0
x[Tool2,C4,D1S1P3] 0
x[Tool2,C4,D1S2P1] 0
x[Tool2,C4,D1S2P2] 0
x[Tool2,C4,D1S2P3] 0
x[Tool2,C4,D1S3P1] 0
x[Tool2,C4,D1S3P2] 0
x[Tool2,C4,D1S3P3] 0
x[Tool2,C4,D2S1P1] 0
x[Tool2,C4,D2S1P2] 1
x[Tool2,C4,D2S1P3] 1
x[Tool2,C4,D2S2P1] 1
x[Tool2,C4,D2S2P2] 0
x[Tool2,C4,D2S2P3] 1
x[Tool2,C4,D2S3P1] 0
x[Tool2,C4,D2S3P2] 0
x[Tool2,C4,D2S3P3] 1
x[Tool2,C4,D3S1P1] 1
x[Tool2,C4,D3S1P2] 0
x[Tool2,C4,D3S1P3] 0
x[Tool2,C4,D3S2P1] 0
x[Tool2,C4,D3S2P2] 1
x[Tool2,C4,D3S2P3] 0
x[Tool2,C4,D3S3P1] 1
x[Tool2,C4,D3S3P2] 1
x[Tool2,C4,D3S3P3] 1
x[Tool2,C4,D4S1P1] 0
x[Tool2,C4,D4S1P2] 0
x[Tool2,C4,D4S1P3] 0
x[Tool2,C4,D4S2P1] 0
x[Tool2,C4,D4S2P2] 0
x[Tool2,C4,D4S2P3] 0
x[Tool2,C4,D4S3P1] 0
x[Tool2,C4,D4S3P2] 0
x[Tool2,C4,D4S3P3] 1
x[Tool2,C4,D5S1P1] 0
x[Tool2,C4,D5S1P2] 1
x[Tool2,C4,D5S1P3] 0
x[Tool2,C4,D5S2P1] 1
x[Tool2,C4,D5S2P2] 0
x[Tool2,C4,D5S2P3] 1
x[Tool2,C4,D5S3P1] 0
x[Tool2,C4,D5S3P2] 0
x[Tool2,C4,D5S3P3] 0
x[Tool2,C4,D6S1P1] 0
x[Tool2,C4,D6S1P2] 0
x[Tool2,C4,D6S1P3] 0
x[Tool2,C4,D6S2P1] 1
x[Tool2,C4,D6S2P2] 0
x[Tool2,C4,D6S2P3] 0
x[Tool2,C4,D6S3P1] 1
x[Tool2,C4,D6S3P2] 0
x[Tool2,C4,D6S3P3] 1
x[Tool2,C4,D7S1P1] 0
x[Tool2,C4,D7S1P2] 0
x[Tool2,C4,D7S1P3] 0
x[Tool2,C4,D7S2P1] 0
x[Tool2,C4,D7S2P2] 0
x[Tool2,C4,D7S2P3] 0
x[Tool2,C4,D7S3P1] 0
x[Tool2,C4,D7S3P2] 0
x[Tool2,C4,D7S3P3] 0
x[Tool2,C5,D1S1P1] 0
x[Tool2,C5,D1S1P2] 0
x[Tool2,C5,D1S1P3] 1
x[Tool2,C5,D1S2P1] 1
x[Tool2,C5,D1S2P2] 0
x[Tool2,C5,D1S2P3] 1
x[Tool2,C5,D1S3P1] 1
x[Tool2,C5,D1S3P2] 1
x[Tool2,C5,D1S3P3] 0
x[Tool2,C5,D2S1P1] 0
x[Tool2,C5,D2S1P2] 0
x[Tool2,C5,D2S1P3] 0
x[Tool2,C5,D2S2P1] 0
x[Tool2,C5,D2S2P2] 0
x[Tool2,C5,D2S2P3] 0
x[Tool2,C5,D2S3P1] 0
x[Tool2,C5,D2S3P2] 0
x[Tool2,C5,D2S3P3] 0
x[Tool2,C5,D3S1P1] 0
x[Tool2,C5,D3S1P2] 0
x[Tool2,C5,D3S1P3] 1
x[Tool2,C5,D3S2P1] 0
x[Tool2,C5,D3S2P2] 0
x[Tool2,C5,D3S2P3] 0
x[Tool2,C5,D3S3P1] 1
x[Tool2,C5,D3S3P2] 0
x[Tool2,C5,D3S3P3] 0
x[Tool2,C5,D4S1P1] 0
x[Tool2,C5,D4S1P2] 0
x[Tool2,C5,D4S1P3] 0
x[Tool2,C5,D4S2P1] 0
x[Tool2,C5,D4S2P2] 0
x[Tool2,C5,D4S2P3] 0
x[Tool2,C5,D4S3P1] 0
x[Tool2,C5,D4S3P2] 0
x[Tool2,C5,D4S3P3] 0
x[Tool2,C5,D5S1P1] 0
x[Tool2,C5,D5S1P2] 0
x[Tool2,C5,D5S1P3] 0
x[Tool2,C5,D5S2P1] 0
x[Tool2,C5,D5S2P2] 0
x[Tool2,C5,D5S2P3] 0
x[Tool2,C5,D5S3P1] 1
x[Tool2,C5,D5S3P2] 1
x[Tool2,C5,D5S3P3] 0
x[Tool2,C5,D6S1P1] 0
x[Tool2,C5,D6S1P2] 1
x[Tool2,C5,D6S1P3] 1
x[Tool2,C5,D6S2P1] 0
x[Tool2,C5,D6S2P2] 0
x[Tool2,C5,D6S2P3] 0
x[Tool2,C5,D6S3P1] 0
x[Tool2,C5,D6S3P2] 0
x[Tool2,C5,D6S3P3] 0
x[Tool2,C5,D7S1P1] 0
x[Tool2,C5,D7S1P2] 0
x[Tool2,C5,D7S1P3] 1
x[Tool2,C5,D7S2P1] 1
x[Tool2,C5,D7S2P2] 0
x[Tool2,C5,D7S2P3] 0
x[Tool2,C5,D7S3P1] 1
x[Tool2,C5,D7S3P2] 0
x[Tool2,C5,D7S3P3] 1
x[Tool3,C1,D1S1P1] 0
x[Tool3,C1,D1S1P2] 1
x[Tool3,C1,D1S1P3] 1
x[Tool3,C1,D1S2P1] 0
x[Tool3,C1,D1S2P2] 0
x[Tool3,C1,D1S2P3] 0
x[Tool3,C1,D1S3P1] 0
x[Tool3,C1,D1S3P2] 0
x[Tool3,C1,D1S3P3] 0
x[Tool3,C1,D2S1P1] 0
x[Tool3,C1,D2S1P2] 0
x[Tool3,C1,D2S1P3] 0
x[Tool3,C1,D2S2P1] 0
x[Tool3,C1,D2S2P2] 0
x[Tool3,C1,D2S2P3] 0
x[Tool3,C1,D2S3P1] 0
x[Tool3,C1,D2S3P2] 0
x[Tool3,C1,D2S3P3] 0
x[Tool3,C1,D3S1P1] 0
x[Tool3,C1,D3S1P2] 0
x[Tool3,C1,D3S1P3] 0
x[Tool3,C1,D3S2P1] 0
x[Tool3,C1,D3S2P2] 1
x[Tool3,C1,D3S2P3] 0
x[Tool3,C1,D3S3P1] 1
x[Tool3,C1,D3S3P2] 0
x[Tool3,C1,D3S3P3] 0
x[Tool3,C1,D4S1P1] 0
x[Tool3,C1,D4S1P2] 0
x[Tool3,C1,D4S1P3] 0
x[Tool3,C1,D4S2P1] 0
x[Tool3,C1,D4S2P2] 0
x[Tool3,C1,D4S2P3] 1
x[Tool3,C1,D4S3P1] 0
x[Tool3,C1,D4S3P2] 0
x[Tool3,C1,D4S3P3] 1
x[Tool3,C1,D5S1P1] 0
x[Tool3,C1,D5S1P2] 0
x[Tool3,C1,D5S1P3] 1
x[Tool3,C1,D5S2P1] 0
x[Tool3,C1,D5S2P2] 0
x[Tool3,C1,D5S2P3] 0
x[Tool3,C1,D5S3P1] 0
x[Tool3,C1,D5S3P2] 0
x[Tool3,C1,D5S3P3] 0
x[Tool3,C1,D6S1P1] 0
x[Tool3,C1,D6S1P2] 0
x[Tool3,C1,D6S1P3] 0
x[Tool3,C1,D6S2P1] 1
x[Tool3,C1,D6S2P2] 0
x[Tool3,C1,D6S2P3] 0
x[Tool3,C1,D6S3P1] 0
x[Tool3,C1,D6S3P2] 0
x[Tool3,C1,D6S3P3] 0
x[Tool3,C1,D7S1P1] 0
x[Tool3,C1,D7S1P2] 0
x[Tool3,C1,D7S1P3] 0
x[Tool3,C1,D7S2P1] 0
x[Tool3,C1,D7S2P2] 0
x[Tool3,C1,D7S2P3] 0
x[Tool3,C1,D7S3P1] 0
x[Tool3,C1,D7S3P2] 0
x[Tool3,C1,D7S3P3] 0
x[Tool3,C2,D1S1P1] 0
x[Tool3,C2,D1S1P2] 0
x[Tool3,C2,D1S1P3] 0
x[Tool3,C2,D1S2P1] 0
x[Tool3,C2,D1S2P2] 0
x[Tool3,C2,D1S2P3] 0
x[Tool3,C2,D1S3P1] 0
x[Tool3,C2,D1S3P2] 0
x[Tool3,C2,D1S3P3] 0
x[Tool3,C2,D2S1P1] 0
x[Tool3,C2,D2S1P2] 1
x[Tool3,C2,D2S1P3] 0
x[Tool3,C2,D2S2P1] 0
x[Tool3,C2,D2S2P2] 0
x[Tool3,C2,D2S2P3] 1
x[Tool3,C2,D2S3P1] 0
x[Tool3,C2,D2S3P2] 0
x[Tool3,C2,D2S3P3] 1
x[Tool3,C2,D3S1P1] 0
x[Tool3,C2,D3S1P2] 1
x[Tool3,C2,D3S1P3] 0
x[Tool3,C2,D3S2P1] 0
x[Tool3,C2,D3S2P2] 0
x[Tool3,C2,D3S2P3] 0
x[Tool3,C2,D3S3P1] 0
x[Tool3,C2,D3S3P2] 0
x[Tool3,C2,D3S3P3] 0
x[Tool3,C2,D4S1P1] 0
x[Tool3,C2,D4S1P2] 0
x[Tool3,C2,D4S1P3] 0
x[Tool3,C2,D4S2P1] 0
x[Tool3,C2,D4S2P2] 1
x[Tool3,C2,D4S2P3] 1
x[Tool3,C2,D4S3P1] 0
x[Tool3,C2,D4S3P2] 0
x[Tool3,C2,D4S3P3] 0
x[Tool3,C2,D5S1P1] 0
x[Tool3,C2,D5S1P2] 0
x[Tool3,C2,D5S1P3] 0
x[Tool3,C2,D5S2P1] 0
x[Tool3,C2,D5S2P2] 0
x[Tool3,C2,D5S2P3] 0
x[Tool3,C2,D5S3P1] 0
x[Tool3,C2,D5S3P2] 0
x[Tool3,C2,D5S3P3] 0
x[Tool3,C2,D6S1P1] 0
x[Tool3,C2,D6S1P2] 1
x[Tool3,C2,D6S1P3] 0
x[Tool3,C2,D6S2P1] 1
x[Tool3,C2,D6S2P2] 0
x[Tool3,C2,D6S2P3] 0
x[Tool3,C2,D6S3P1] 0
x[Tool3,C2,D6S3P2] 0
x[Tool3,C2,D6S3P3] 0
x[Tool3,C2,D7S1P1] 0
x[Tool3,C2,D7S1P2] 0
x[Tool3,C2,D7S1P3] 0
x[Tool3,C2,D7S2P1] 0
x[Tool3,C2,D7S2P2] 0
x[Tool3,C2,D7S2P3] 0
x[Tool3,C2,D7S3P1] 0
x[Tool3,C2,D7S3P2] 0
x[Tool3,C2,D7S3P3] 0
x[Tool3,C3,D1S1P1] 1
x[Tool3,C3,D1S1P2] 0
x[Tool3,C3,D1S1P3] 0
x[Tool3,C3,D1S2P1] 0
x[Tool3,C3,D1S2P2] 0
x[Tool3,C3,D1S2P3] 0
x[Tool3,C3,D1S3P1] 0
x[Tool3,C3,D1S3P2] 0
x[Tool3,C3,D1S3P3] 0
x[Tool3,C3,D2S1P1] 0
x[Tool3,C3,D2S1P2] 0
x[Tool3,C3,D2S1P3] 0
x[Tool3,C3,D2S2P1] 0
x[Tool3,C3,D2S2P2] 0
x[Tool3,C3,D2S2P3] 0
x[Tool3,C3,D2S3P1] 0
x[Tool3,C3,D2S3P2] 0
x[Tool3,C3,D2S3P3] 0
x[Tool3,C3,D3S1P1] 0
x[Tool3,C3,D3S1P2] 0
x[Tool3,C3,D3S1P3] 0
x[Tool3,C3,D3S2P1] 0
x[Tool3,C3,D3S2P2] 0
x[Tool3,C3,D3S2P3] 0
x[Tool3,C3,D3S3P1] 0
x[Tool3,C3,D3S3P2] 1
x[Tool3,C3,D3S3P3] 0
x[Tool3,C3,D4S1P1] 0
x[Tool3,C3,D4S1P2] 0
x[Tool3,C3,D4S1P3] 0
x[Tool3,C3,D4S2P1] 0
x[Tool3,C3,D4S2P2] 1
x[Tool3,C3,D4S2P3] 0
x[Tool3,C3,D4S3P1] 1
x[Tool3,C3,D4S3P2] 0
x[Tool3,C3,D4S3P3] 0
x[Tool3,C3,D5S1P1] 0
x[Tool3,C3,D5S1P2] 0
x[Tool3,C3,D5S1P3] 0
x[Tool3,C3,D5S2P1] 0
x[Tool3,C3,D5S2P2] 0
x[Tool3,C3,D5S2P3] 0
x[Tool3,C3,D5S3P1] 0
x[Tool3,C3,D5S3P2] 0
x[Tool3,C3,D5S3P3] 0
x[Tool3,C3,D6S1P1] 0
x[Tool3,C3,D6S1P2] 0
x[Tool3,C3,D6S1P3] 0
x[Tool3,C3,D6S2P1] 0
x[Tool3,C3,D6S2P2] 0
x[Tool3,C3,D6S2P3] 0
x[Tool3,C3,D6S3P1] 1
x[Tool3,C3,D6S3P2] 0
x[Tool3,C3,D6S3P3] 0
x[Tool3,C3,D7S1P1] 0
x[Tool3,C3,D7S1P2] 1
x[Tool3,C3,D7S1P3] 1
x[Tool3,C3,D7S2P1] 0
x[Tool3,C3,D7S2P2] 0
x[Tool3,C3,D7S2P3] 0
x[Tool3,C3,D7S3P1] 0
x[Tool3,C3,D7S3P2] 1
x[Tool3,C3,D7S3P3] 0
x[Tool3,C4,D1S1P1] 0
x[Tool3,C4,D1S1P2] 0
x[Tool3,C4,D1S1P3] 0
x[Tool3,C4,D1S2P1] 0
x[Tool3,C4,D1S2P2] 0
x[Tool3,C4,D1S2P3] 0
x[Tool3,C4,D1S3P1] 0
x[Tool3,C4,D1S3P2] 1
x[Tool3,C4,D1S3P3] 0
x[Tool3,C4,D2S1P1] 0
x[Tool3,C4,D2S1P2] 0
x[Tool3,C4,D2S1P3] 0
x[Tool3,C4,D2S2P1] 0
x[Tool3,C4,D2S2P2] 0
x[Tool3,C4,D2S2P3] 0
x[Tool3,C4,D2S3P1] 0
x[Tool3,C4,D2S3P2] 1
x[Tool3,C4,D2S3P3] 0
x[Tool3,C4,D3S1P1] 0
x[Tool3,C4,D3S1P2] 0
x[Tool3,C4,D3S1P3] 0
x[Tool3,C4,D3S2P1] 0
x[Tool3,C4,D3S2P2] 0
x[Tool3,C4,D3S2P3] 0
x[Tool3,C4,D3S3P1] 0
x[Tool3,C4,D3S3P2] 0
x[Tool3,C4,D3S3P3] 0
x[Tool3,C4,D4S1P1] 0
x[Tool3,C4,D4S1P2] 0
x[Tool3,C4,D4S1P3] 0
x[Tool3,C4,D4S2P1] 0
x[Tool3,C4,D4S2P2] 0
x[Tool3,C4,D4S2P3] 0
x[Tool3,C4,D4S3P1] 0
x[Tool3,C4,D4S3P2] 1
x[Tool3,C4,D4S3P3] 0
x[Tool3,C4,D5S1P1] 0
x[Tool3,C4,D5S1P2] 0
x[Tool3,C4,D5S1P3] 0
x[Tool3,C4,D5S2P1] 0
x[Tool3,C4,D5S2P2] 1
x[Tool3,C4,D5S2P3] 0
x[Tool3,C4,D5S3P1] 0
x[Tool3,C4,D5S3P2] 0
x[Tool3,C4,D5S3P3] 0
x[Tool3,C4,D6S1P1] 0
x[Tool3,C4,D6S1P2] 0
x[Tool3,C4,D6S1P3] 0
x[Tool3,C4,D6S2P1] 0
x[Tool3,C4,D6S2P2] 0
x[Tool3,C4,D6S2P3] 0
x[Tool3,C4,D6S3P1] 0
x[Tool3,C4,D6S3P2] 0
x[Tool3,C4,D6S3P3] 0
x[Tool3,C4,D7S1P1] 0
x[Tool3,C4,D7S1P2] 0
x[Tool3,C4,D7S1P3] 0
x[Tool3,C4,D7S2P1] 0
x[Tool3,C4,D7S2P2] 0
x[Tool3,C4,D7S2P3] 0
x[Tool3,C4,D7S3P1] 0
x[Tool3,C4,D7S3P2] 0
x[Tool3,C4,D7S3P3] 0
x[Tool3,C5,D1S1P1] 0
x[Tool3,C5,D1S1P2] 0
x[Tool3,C5,D1S1P3] 0
x[Tool3,C5,D1S2P1] 0
x[Tool3,C5,D1S2P2] 0
x[Tool3,C5,D1S2P3] 0
x[Tool3,C5,D1S3P1] 0
x[Tool3,C5,D1S3P2] 0
x[Tool3,C5,D1S3P3] 0
x[Tool3,C5,D2S1P1] 0
x[Tool3,C5,D2S1P2] 0
x[Tool3,C5,D2S1P3] 0
x[Tool3,C5,D2S2P1] 0
x[Tool3,C5,D2S2P2] 0
x[Tool3,C5,D2S2P3] 0
x[Tool3,C5,D2S3P1] 0
x[Tool3,C5,D2S3P2] 0
x[Tool3,C5,D2S3P3] 0
x[Tool3,C5,D3S1P1] 0
x[Tool3,C5,D3S1P2] 0
x[Tool3,C5,D3S1P3] 0
x[Tool3,C5,D3S2P1] 0
x[Tool3,C5,D3S2P2] 0
x[Tool3,C5,D3S2P3] 0
x[Tool3,C5,D3S3P1] 0
x[Tool3,C5,D3S3P2] 0
x[Tool3,C5,D3S3P3] 0
x[Tool3,C5,D4S1P1] 0
x[Tool3,C5,D4S1P2] 0
x[Tool3,C5,D4S1P3] 0
x[Tool3,C5,D4S2P1] 0
x[Tool3,C5,D4S2P2] 0
x[Tool3,C5,D4S2P3] 0
x[Tool3,C5,D4S3P1] 0
x[Tool3,C5,D4S3P2] 0
x[Tool3,C5,D4S3P3] 0
x[Tool3,C5,D5S1P1] 0
x[Tool3,C5,D5S1P2] 0
x[Tool3,C5,D5S1P3] 0
x[Tool3,C5,D5S2P1] 0
x[Tool3,C5,D5S2P2] 0
x[Tool3,C5,D5S2P3] 0
x[Tool3,C5,D5S3P1] 0
x[Tool3,C5,D5S3P2] 0
x[Tool3,C5,D5S3P3] 0
x[Tool3,C5,D6S1P1] 0
x[Tool3,C5,D6S1P2] 0
x[Tool3,C5,D6S1P3] 0
x[Tool3,C5,D6S2P1] 0
x[Tool3,C5,D6S2P2] 0
x[Tool3,C5,D6S2P3] 0
x[Tool3,C5,D6S3P1] 0
x[Tool3,C5,D6S3P2] 0
x[Tool3,C5,D6S3P3] 0
x[Tool3,C5,D7S1P1] 0
x[Tool3,C5,D7S1P2] 0
x[Tool3,C5,D7S1P3] 0
x[Tool3,C5,D7S2P1] 0
x[Tool3,C5,D7S2P2] 1
x[Tool3,C5,D7S2P3] 0
x[Tool3,C5,D7S3P1] 0
x[Tool3,C5,D7S3P2] 0
x[Tool3,C5,D7S3P3] 0
